(set-info :smt-lib-version 2.7)
(set-logic ALL)
(set-info :source |
Generated on: 2026-06-22
Generator: pog2smtlib-2.7 github.com/CLEARSY/pog2smtlib-2.7 (-l HO_ALL -rpX)
Application: Discharging a proof obligation generated by aTelierB from an anonymized B machine
Target solver: CVC5 (--mbqi --enum-inst)
Time limit: 1200.0
|)
(set-info :license "www.gnu.org/licenses/gpl-3.0.en.html")
(set-info :category "industrial")
(set-info :status unknown)

(define-sort |Z| () Int)
(declare-sort P 1)
(declare-datatype C (par (T1 T2) ((maplet (fst T1) (snd T2)))))
(define-sort |POW Z| () (P |Z|))
(define-sort |(Z x Z)| () (C |Z| |Z|))
(declare-fun |set.in Z| (|Z| |POW Z|) Bool)
(define-sort |POW (Z x Z)| () (P |(Z x Z)|))
(define-sort |((Z x Z) x Z)| () (C |(Z x Z)| |Z|))
(declare-fun |set.in (Z x Z)| (|(Z x Z)| |POW (Z x Z)|) Bool)
(define-sort |POW POW (Z x Z)| () (P |POW (Z x Z)|))
(define-sort |POW ((Z x Z) x Z)| () (P |((Z x Z) x Z)|))
(declare-fun |set.subseteq (Z x Z)| (|POW (Z x Z)| |POW (Z x Z)|) Bool)
(assert (!
    (forall ((s |POW (Z x Z)|) (t |POW (Z x Z)|))
      (=
        (|set.subseteq (Z x Z)| s t)
        (forall ((e |(Z x Z)|)) (=> (|set.in (Z x Z)| e s) (|set.in (Z x Z)| e t)))
      )
    )
    :named |ax.set.subseteq (Z x Z)|))
(declare-fun |set.in POW (Z x Z)| (|POW (Z x Z)| |POW POW (Z x Z)|) Bool)
(declare-fun |set.in ((Z x Z) x Z)| (|((Z x Z) x Z)| |POW ((Z x Z) x Z)|) Bool)
(define-sort |POW POW ((Z x Z) x Z)| () (P |POW ((Z x Z) x Z)|))
(declare-fun |sub-sets (Z x Z)| (|POW (Z x Z)|) |POW POW (Z x Z)|)
(assert (!
  (forall ((s |POW (Z x Z)|) (t |POW (Z x Z)|))
    (=
      (|set.in POW (Z x Z)| s (|sub-sets (Z x Z)| t))
      (|set.subseteq (Z x Z)| s t)))
  :named |ax.sub-sets (Z x Z)|))
(declare-fun |set.product Z Z| (|POW Z| |POW Z|) |POW (Z x Z)|)
(assert (!
  (forall ((s1 |POW Z|) (s2 |POW Z|))
    (forall ((p |(Z x Z)|))
      (= (|set.in (Z x Z)| p (|set.product Z Z| s1 s2))
        (and (|set.in Z| (fst p) s1) (|set.in Z| (snd p) s2)))))
  :named |ax.set.in.product.1 (Z x Z)|))
(assert (!
  (forall ((s1 |POW Z|) (s2 |POW Z|))
    (forall ((x1 |Z|) (x2 |Z|))
      (= (|set.in (Z x Z)| (maplet x1 x2) (|set.product Z Z| s1 s2))
        (and (|set.in Z| x1 s1) (|set.in Z| x2 s2)))))
  :named |ax.set.in.product.2 (Z x Z)|))
(assert (!
  (forall ((s |POW Z|) (t |POW Z|))
    (=
      (= s t)
      (forall ((e |Z|)) (= (|set.in Z| e s) (|set.in Z| e t)))))
  :named |ax.set.eq Z|))
(declare-fun |rel.range Z Z| (|POW (Z x Z)|) |POW Z|)
(assert (!
  (forall ((r |POW (Z x Z)|) (e |Z|))
    (= (|set.in Z| e (|rel.range Z Z| r))
       (exists ((x |Z|)) (|set.in (Z x Z)| (maplet x e) r))))
  :named |ax:set.in.range (Z x Z)|))
(declare-fun |rel.range (Z x Z) Z| (|POW ((Z x Z) x Z)|) |POW Z|)
(assert (!
  (forall ((r |POW ((Z x Z) x Z)|) (e |Z|))
    (= (|set.in Z| e (|rel.range (Z x Z) Z| r))
       (exists ((x |(Z x Z)|)) (|set.in ((Z x Z) x Z)| (maplet x e) r))))
  :named |ax:set.in.range ((Z x Z) x Z)|))
(assert (!
  (forall ((s |POW (Z x Z)|) (t |POW (Z x Z)|))
    (=
      (= s t)
      (forall ((e |(Z x Z)|)) (= (|set.in (Z x Z)| e s) (|set.in (Z x Z)| e t)))))
  :named |ax.set.eq (Z x Z)|))
(declare-fun |set.in POW ((Z x Z) x Z)| (|POW ((Z x Z) x Z)| |POW POW ((Z x Z) x Z)|) Bool)
(declare-fun |relations Z Z| (|POW Z| |POW Z|) |POW POW (Z x Z)|)
(assert (!
  (forall ((X |POW Z|) (Y |POW Z|))
    (= (|relations Z Z| X Y)
       (|sub-sets (Z x Z)| (|set.product Z Z| X Y))))
    :named |def.relations (Z x Z)|))
(declare-fun |functions Z Z| (|POW Z| |POW Z|) |POW POW (Z x Z)|)
(assert (!
  (forall ((X |POW Z|) (Y |POW Z|))
    (forall ((f |POW (Z x Z)|))
      (= (|set.in POW (Z x Z)| f (|functions Z Z| X Y))
         (forall ((p |(Z x Z)|) (q |(Z x Z)|))
           (=> (and (|set.in (Z x Z)| p f) (|set.in (Z x Z)| q f) (= (fst p) (fst q)))
               (= (snd p) (snd q)))))))
:named |ax:set.in.functions (Z x Z)|))
(declare-fun |rel.domain Z Z| (|POW (Z x Z)|) |POW Z|)
(assert (!
  (forall ((r |POW (Z x Z)|) (e |Z|))
    (= (|set.in Z| e (|rel.domain Z Z| r))
       (exists ((y |Z|)) (|set.in (Z x Z)| (maplet e y) r))))
  :named |ax:set.in.domain (Z x Z)|))
(declare-fun |surjections Z Z| (|POW Z| |POW Z|) |POW POW (Z x Z)|)
(assert (!
  (forall ((X |POW Z|) (Y |POW Z|))
    (forall ((f |POW (Z x Z)|))
      (= (|set.in POW (Z x Z)| f (|surjections Z Z| X Y))
         (= (|rel.range Z Z| f) Y)
      )))
  :named |ax:set.in.surjections (Z x Z)|))
(declare-fun |injections Z Z| (|POW Z| |POW Z|) |POW POW (Z x Z)|)
(assert (!
  (forall ((X |POW Z|) (Y |POW Z|) (f |POW (Z x Z)|))
     (= (|set.in POW (Z x Z)| f (|injections Z Z| X Y))
        (forall ((p |(Z x Z)|) (q |(Z x Z)|))
          (=> (and (|set.in (Z x Z)| p f) (|set.in (Z x Z)| q f) (= (snd p) (snd q)))
              (= (fst p) (fst q))))))
  :named |ax:set.in.injections (Z x Z)|))
(declare-fun |surjections (Z x Z) Z| (|POW (Z x Z)| |POW Z|) |POW POW ((Z x Z) x Z)|)
(assert (!
  (forall ((X |POW (Z x Z)|) (Y |POW Z|))
    (forall ((f |POW ((Z x Z) x Z)|))
      (= (|set.in POW ((Z x Z) x Z)| f (|surjections (Z x Z) Z| X Y))
         (= (|rel.range (Z x Z) Z| f) Y)
      )))
  :named |ax:set.in.surjections ((Z x Z) x Z)|))
(declare-fun |injections (Z x Z) Z| (|POW (Z x Z)| |POW Z|) |POW POW ((Z x Z) x Z)|)
(assert (!
  (forall ((X |POW (Z x Z)|) (Y |POW Z|) (f |POW ((Z x Z) x Z)|))
     (= (|set.in POW ((Z x Z) x Z)| f (|injections (Z x Z) Z| X Y))
        (forall ((p |((Z x Z) x Z)|) (q |((Z x Z) x Z)|))
          (=> (and (|set.in ((Z x Z) x Z)| p f) (|set.in ((Z x Z) x Z)| q f) (= (snd p) (snd q)))
              (= (fst p) (fst q))))))
  :named |ax:set.in.injections ((Z x Z) x Z)|))
(declare-fun |functions.partial Z Z| (|POW Z| |POW Z|) |POW POW (Z x Z)|)
(assert (!
  (forall ((e1 |POW Z|) (e2 |POW Z|))
    (forall ((f |POW (Z x Z)|))
      (= (|set.in POW (Z x Z)| f (|functions.partial Z Z| e1 e2))
         (and (|set.in POW (Z x Z)| f (|relations Z Z| e1 e2))
              (|set.in POW (Z x Z)| f (|functions Z Z| e1 e2))))))
  :named |ax:def.pfun (Z x Z)|)
)
(declare-fun |relations.total Z Z| (|POW Z| |POW Z|) |POW POW (Z x Z)|)
(assert (!
  (forall ((X |POW Z|) (Y |POW Z|))
    (forall ((f |POW (Z x Z)|))
      (= (|set.in POW (Z x Z)| f (|relations.total Z Z| X Y))
         (= (|rel.domain Z Z| f) X))))
 :named |ax:set.in.relations.total (Z x Z)|))
(declare-fun |bijections Z Z| (|POW Z| |POW Z|) |POW POW (Z x Z)|)
(assert (!
  (forall ((X |POW Z|) (Y |POW Z|))
    (forall ((f |POW (Z x Z)|))
      (= (|set.in POW (Z x Z)| f (|bijections Z Z| X Y))
         (and (|set.in POW (Z x Z)| f (|injections Z Z| X Y))
              (|set.in POW (Z x Z)| f (|surjections Z Z| X Y))))))
  :named |ax:set.in.bijections (Z x Z)|))
(declare-datatype Cardinals ( ( Infinite ) ( Finite ( Value Int ) )))
(declare-fun |interval| (|Z| |Z|) |POW Z|)
 (assert (!
    (forall ((l |Z|) (u |Z|) (e |Z|))
        (= (|set.in Z| e (|interval| l u))
            (and (<= l e) (<= e u))))
    :named |ax.set.in.interval|))
(declare-fun |bijections (Z x Z) Z| (|POW (Z x Z)| |POW Z|) |POW POW ((Z x Z) x Z)|)
(assert (!
  (forall ((X |POW (Z x Z)|) (Y |POW Z|))
    (forall ((f |POW ((Z x Z) x Z)|))
      (= (|set.in POW ((Z x Z) x Z)| f (|bijections (Z x Z) Z| X Y))
         (and (|set.in POW ((Z x Z) x Z)| f (|injections (Z x Z) Z| X Y))
              (|set.in POW ((Z x Z) x Z)| f (|surjections (Z x Z) Z| X Y))))))
  :named |ax:set.in.bijections ((Z x Z) x Z)|))
(declare-fun |set.subseteq POW (Z x Z)| (|POW POW (Z x Z)| |POW POW (Z x Z)|) Bool)
(assert (!
    (forall ((s |POW POW (Z x Z)|) (t |POW POW (Z x Z)|))
      (=
        (|set.subseteq POW (Z x Z)| s t)
        (forall ((e |POW (Z x Z)|)) (=> (|set.in POW (Z x Z)| e s) (|set.in POW (Z x Z)| e t)))
      )
    )
    :named |ax.set.subseteq POW (Z x Z)|))
(declare-fun |functions.total Z Z| (|POW Z| |POW Z|) |POW POW (Z x Z)|)
(assert (!
  (forall ((e1 |POW Z|) (e2 |POW Z|))
    (forall ((f |POW (Z x Z)|))
      (= (|set.in POW (Z x Z)| f (|functions.total Z Z| e1 e2))
         (and (|set.in POW (Z x Z)| f (|functions.partial Z Z| e1 e2))
              (|set.in POW (Z x Z)| f (|relations.total Z Z| e1 e2))))))
  :named |ax:def.tfun (Z x Z)|))
(declare-fun |card Z| (|POW Z|) Cardinals)
(assert (!
  (forall ((s |POW Z|))
    (or (= (|card Z| s) Infinite)
        (exists ((f |POW (Z x Z)|))
          (|set.in POW (Z x Z)| f (|bijections Z Z| s (|interval| 1 (Value (|card Z| s))))))))
  :named |ax.card.definition Z|))
(declare-fun |card (Z x Z)| (|POW (Z x Z)|) Cardinals)
(assert (!
  (forall ((s |POW (Z x Z)|))
    (or (= (|card (Z x Z)| s) Infinite)
        (exists ((f |POW ((Z x Z) x Z)|))
          (|set.in POW ((Z x Z) x Z)| f (|bijections (Z x Z) Z| s (|interval| 1 (Value (|card (Z x Z)| s))))))))
  :named |ax.card.definition (Z x Z)|))
(define-const MAXINT |Z| 2147483647)
(declare-const s162 |POW (Z x Z)|)
(declare-const s158 |Z|)
(declare-const s159 |Z|)
(declare-const s160 |Z|)
(declare-const s161 |POW (Z x Z)|)
(declare-fun |seq Z| (|POW Z|) |POW POW (Z x Z)|)
(assert (!
  (forall ((E |POW Z|) (s |POW (Z x Z)|))
    (=>
      (|set.in POW (Z x Z)| s (|seq Z| E))
      ((_ is Finite) (|card (Z x Z)| s))))
  :named |ax.seq.is.finite Z|))
(assert (!
  (forall ((E |POW Z|))
    (|set.subseteq POW (Z x Z)|
      (|seq Z| E)
      (|functions.total Z Z| (|interval| 1 (Value (|card Z| E))) E)))
  :named |ax.seq.is.total.fun Z|))
(declare-const NAT |POW Z|)
(assert (!
  (forall ((e |Z|)) (= (|set.in Z| e NAT) (and (<= 0 e) (<= e MAXINT))))
  :named |ax.set.in.NAT|))
(declare-fun |size Z| (|POW (Z x Z)|) |Z|)
(assert (!
  (forall ((s |POW (Z x Z)|))
    (= (|size Z| s) (Value (|card (Z x Z)| s))))
  :named |ax.size.definition Z|))
(assert (!
  (|set.in Z| s158 NAT)
  :named |Local_Hyp:0|))
(assert (!
  (<= 1 s158)
  :named |Local_Hyp:1|))
(assert (!
  (|set.in Z| s159 NAT)
  :named |Local_Hyp:2|))
(assert (!
  (< s159 MAXINT)
  :named |Local_Hyp:3|))
(assert (!
  (<= (* 5 s159) 400)
  :named |Local_Hyp:4|))
(assert (!
  (|set.in Z| s160 NAT)
  :named |Local_Hyp:5|))
(assert (!
  (< s160 MAXINT)
  :named |Local_Hyp:6|))
(assert (!
  (<= (* 5 s160) 2147478637)
  :named |Local_Hyp:7|))
(assert (!
  (<= 20 s159)
  :named |Local_Hyp:8|))
(assert (!
  (<= 22 s159)
  :named |Local_Hyp:9|))
(assert (!
  (<= 33 s159)
  :named |Local_Hyp:10|))
(assert (!
  (<= 6 s160)
  :named |Local_Hyp:11|))
(assert (!
  (<= 10 s160)
  :named |Local_Hyp:12|))
(assert (!
  (<= 41 s159)
  :named |Local_Hyp:13|))
(assert (!
  (|set.in POW (Z x Z)| s161 (|seq Z| NAT))
  :named |Local_Hyp:14|))
(assert (!
  (|set.in POW (Z x Z)| s162 (|seq Z| NAT))
  :named |Local_Hyp:15|))
(assert (!
  (= (|size Z| s161) s159)
  :named |Local_Hyp:16|))
(assert (!
  (not
    (|set.in POW (Z x Z)| s162 (|seq Z| (|rel.range Z Z| s162))))
  :named |Goal|))
(check-sat)
(exit)
